  PyCSP3 (Python:3.7.9, Path:C:\Users\HASEE\AppData\Local\Packages\PythonSoftwareFoundation.Python.3.7_qbz5n2kfra8p0\LocalCache\local-packages\Python37\site-packages\pycsp3\compiler.py)

  * Generating the file essai_cop_mod2-low-reformulate_celar_250_25_15_5_0.xml completed in     0.47 seconds.

c Choco e747e1e
s OPTIMUM FOUND
v <instantiation>
v 	<list>freq_emi[0] freq_emi[1] freq_emi[2] freq_emi[3] freq_emi[4] freq_emi[5] freq_emi[6] freq_emi[7] freq_emi[8] freq_emi[9] freq_emi[10] freq_emi[11] freq_emi[12] freq_emi[13] freq_emi[14] freq_emi[15] freq_emi[16] freq_emi[17] freq_emi[18] freq_emi[19] freq_emi[20] freq_emi[21] freq_emi[22] freq_emi[23] freq_emi[24] freq_emi[25] freq_emi[26] freq_emi[27] freq_emi[28] freq_emi[29] freq_emi[30] freq_emi[31] freq_emi[32] freq_emi[33] freq_emi[34] freq_emi[35] freq_emi[36] freq_emi[37] freq_emi[38] freq_emi[39] freq_emi[40] freq_emi[41] freq_emi[42] freq_emi[43] freq_emi[44] freq_emi[45] freq_emi[46] freq_emi[47] freq_emi[48] freq_emi[49] freq_emi[50] freq_emi[51] freq_emi[52] freq_emi[53] freq_emi[54] freq_emi[55] freq_emi[56] freq_emi[57] freq_emi[58] freq_emi[59] freq_emi[60] freq_emi[61] freq_emi[62] freq_emi[63] freq_emi[64] freq_emi[65] freq_emi[66] freq_emi[67] freq_emi[68] freq_emi[69] freq_emi[70] freq_emi[71] freq_emi[72] freq_emi[73] freq_emi[74] freq_emi[75] freq_emi[76] freq_emi[77] freq_emi[78] freq_emi[79] freq_emi[80] freq_emi[81] freq_emi[82] freq_emi[83] freq_emi[84] freq_emi[85] freq_emi[86] freq_emi[87] freq_emi[88] freq_emi[89] freq_emi[90] freq_emi[91] freq_emi[92] freq_emi[93] freq_emi[94] freq_emi[95] freq_emi[96] freq_emi[97] freq_emi[98] freq_emi[99] freq_emi[100] freq_emi[101] freq_emi[102] freq_emi[103] freq_emi[104] freq_emi[105] freq_emi[106] freq_emi[107] freq_emi[108] freq_emi[109] freq_emi[110] freq_emi[111] freq_emi[112] freq_emi[113] freq_emi[114] freq_emi[115] freq_emi[116] freq_emi[117] freq_emi[118] freq_emi[119] freq_emi[120] freq_emi[121] freq_emi[122] freq_emi[123] freq_emi[124] freq_emi[125] freq_emi[126] freq_emi[127] freq_emi[128] freq_emi[129] freq_emi[130] freq_emi[131] freq_emi[132] freq_emi[133] freq_emi[134] freq_emi[135] freq_emi[136] freq_emi[137] freq_emi[138] freq_emi[139] freq_emi[140] freq_emi[141] freq_emi[142] freq_emi[143] freq_emi[144] freq_emi[145] freq_emi[146] freq_emi[147] freq_emi[148] freq_emi[149] freq_emi[150] freq_emi[151] freq_emi[152] freq_emi[153] freq_emi[154] freq_emi[155] freq_emi[156] freq_emi[157] freq_emi[158] freq_emi[159] freq_emi[160] freq_emi[161] freq_emi[162] freq_emi[163] freq_emi[164] freq_emi[165] freq_emi[166] freq_emi[167] freq_emi[168] freq_emi[169] freq_emi[170] freq_emi[171] freq_emi[172] freq_emi[173] freq_emi[174] freq_emi[175] freq_emi[176] freq_emi[177] freq_emi[178] freq_emi[179] freq_emi[180] freq_emi[181] freq_emi[182] freq_emi[183] freq_emi[184] freq_emi[185] freq_emi[186] freq_emi[187] freq_emi[188] freq_emi[189] freq_emi[190] freq_emi[191] freq_emi[192] freq_emi[193] freq_emi[194] freq_emi[195] freq_emi[196] freq_emi[197] freq_emi[198] freq_emi[199] freq_emi[200] freq_emi[201] freq_emi[202] freq_emi[203] freq_emi[204] freq_emi[205] freq_emi[206] freq_emi[207] freq_emi[208] freq_emi[209] freq_emi[210] freq_emi[211] freq_emi[212] freq_emi[213] freq_emi[214] freq_emi[215] freq_emi[216] freq_emi[217] freq_emi[218] freq_emi[219] freq_emi[220] freq_emi[221] freq_emi[222] freq_emi[223] freq_emi[224] freq_emi[225] freq_emi[226] freq_emi[227] freq_emi[228] freq_emi[229] freq_emi[230] freq_emi[231] freq_emi[232] freq_emi[233] freq_emi[234] freq_emi[235] freq_emi[236] freq_emi[237] freq_emi[238] freq_emi[239] freq_emi[240] freq_emi[241] freq_emi[242] freq_emi[243] freq_emi[244] freq_emi[245] freq_emi[246] freq_emi[247] freq_emi[248] freq_emi[249] freq_rec[0] freq_rec[1] freq_rec[2] freq_rec[3] freq_rec[4] freq_rec[5] freq_rec[6] freq_rec[7] freq_rec[8] freq_rec[9] freq_rec[10] freq_rec[11] freq_rec[12] freq_rec[13] freq_rec[14] freq_rec[15] freq_rec[16] freq_rec[17] freq_rec[18] freq_rec[19] freq_rec[20] freq_rec[21] freq_rec[22] freq_rec[23] freq_rec[24] freq_rec[25] freq_rec[26] freq_rec[27] freq_rec[28] freq_rec[29] freq_rec[30] freq_rec[31] freq_rec[32] freq_rec[33] freq_rec[34] freq_rec[35] freq_rec[36] freq_rec[37] freq_rec[38] freq_rec[39] freq_rec[40] freq_rec[41] freq_rec[42] freq_rec[43] freq_rec[44] freq_rec[45] freq_rec[46] freq_rec[47] freq_rec[48] freq_rec[49] freq_rec[50] freq_rec[51] freq_rec[52] freq_rec[53] freq_rec[54] freq_rec[55] freq_rec[56] freq_rec[57] freq_rec[58] freq_rec[59] freq_rec[60] freq_rec[61] freq_rec[62] freq_rec[63] freq_rec[64] freq_rec[65] freq_rec[66] freq_rec[67] freq_rec[68] freq_rec[69] freq_rec[70] freq_rec[71] freq_rec[72] freq_rec[73] freq_rec[74] freq_rec[75] freq_rec[76] freq_rec[77] freq_rec[78] freq_rec[79] freq_rec[80] freq_rec[81] freq_rec[82] freq_rec[83] freq_rec[84] freq_rec[85] freq_rec[86] freq_rec[87] freq_rec[88] freq_rec[89] freq_rec[90] freq_rec[91] freq_rec[92] freq_rec[93] freq_rec[94] freq_rec[95] freq_rec[96] freq_rec[97] freq_rec[98] freq_rec[99] freq_rec[100] freq_rec[101] freq_rec[102] freq_rec[103] freq_rec[104] freq_rec[105] freq_rec[106] freq_rec[107] freq_rec[108] freq_rec[109] freq_rec[110] freq_rec[111] freq_rec[112] freq_rec[113] freq_rec[114] freq_rec[115] freq_rec[116] freq_rec[117] freq_rec[118] freq_rec[119] freq_rec[120] freq_rec[121] freq_rec[122] freq_rec[123] freq_rec[124] freq_rec[125] freq_rec[126] freq_rec[127] freq_rec[128] freq_rec[129] freq_rec[130] freq_rec[131] freq_rec[132] freq_rec[133] freq_rec[134] freq_rec[135] freq_rec[136] freq_rec[137] freq_rec[138] freq_rec[139] freq_rec[140] freq_rec[141] freq_rec[142] freq_rec[143] freq_rec[144] freq_rec[145] freq_rec[146] freq_rec[147] freq_rec[148] freq_rec[149] freq_rec[150] freq_rec[151] freq_rec[152] freq_rec[153] freq_rec[154] freq_rec[155] freq_rec[156] freq_rec[157] freq_rec[158] freq_rec[159] freq_rec[160] freq_rec[161] freq_rec[162] freq_rec[163] freq_rec[164] freq_rec[165] freq_rec[166] freq_rec[167] freq_rec[168] freq_rec[169] freq_rec[170] freq_rec[171] freq_rec[172] freq_rec[173] freq_rec[174] freq_rec[175] freq_rec[176] freq_rec[177] freq_rec[178] freq_rec[179] freq_rec[180] freq_rec[181] freq_rec[182] freq_rec[183] freq_rec[184] freq_rec[185] freq_rec[186] freq_rec[187] freq_rec[188] freq_rec[189] freq_rec[190] freq_rec[191] freq_rec[192] freq_rec[193] freq_rec[194] freq_rec[195] freq_rec[196] freq_rec[197] freq_rec[198] freq_rec[199] freq_rec[200] freq_rec[201] freq_rec[202] freq_rec[203] freq_rec[204] freq_rec[205] freq_rec[206] freq_rec[207] freq_rec[208] freq_rec[209] freq_rec[210] freq_rec[211] freq_rec[212] freq_rec[213] freq_rec[214] freq_rec[215] freq_rec[216] freq_rec[217] freq_rec[218] freq_rec[219] freq_rec[220] freq_rec[221] freq_rec[222] freq_rec[223] freq_rec[224] freq_rec[225] freq_rec[226] freq_rec[227] freq_rec[228] freq_rec[229] freq_rec[230] freq_rec[231] freq_rec[232] freq_rec[233] freq_rec[234] freq_rec[235] freq_rec[236] freq_rec[237] freq_rec[238] freq_rec[239] freq_rec[240] freq_rec[241] freq_rec[242] freq_rec[243] freq_rec[244] freq_rec[245] freq_rec[246] freq_rec[247] freq_rec[248] freq_rec[249] </list>
v 	<values>350 84 224 224 406 252 350 280 210 350 294 210 546 462 350 280 322 406 364 462 378 238 378 196 294 392 238 294 224 154 154 462 420 392 308 28 140 294 686 196 112 196 434 308 168 322 280 112 322 462 308 168 308 308 350 224 224 280 28 476 196 56 448 266 266 238 392 238 434 168 224 434 84 308 84 238 462 378 392 574 350 322 322 378 126 224 252 224 154 266 266 224 112 392 364 224 182 252 112 252 84 336 42 308 182 280 154 224 196 336 336 406 322 252 364 448 210 252 238 308 378 308 266 448 574 210 392 322 224 70 140 420 434 168 294 266 252 266 252 98 266 112 140 448 210 210 224 266 238 112 112 266 210 224 280 252 448 210 308 196 112 308 182 490 322 322 518 224 154 336 336 308 210 238 238 350 280 294 406 196 84 238 280 224 154 252 210 238 308 504 434 168 308 154 336 140 350 434 364 168 462 392 280 140 420 210 266 350 448 14 182 154 462 392 322 252 28 364 252 210 210 224 70 644 350 336 364 336 308 504 252 266 364 350 350 336 392 336 336 224 490 462 336 336 294 168 392 364 210 196 532 266 406 406 588 434 532 462 392 532 476 392 364 644 532 462 504 588 546 644 196 420 560 378 476 574 420 476 406 336 336 644 602 574 490 210 322 476 504 378 294 378 616 490 350 504 462 294 504 280 490 350 490 490 532 406 406 98 210 658 378 238 266 448 448 420 574 420 616 350 406 616 266 490 266 420 644 560 574 392 532 504 504 196 308 406 434 406 336 84 448 42 294 574 182 406 364 70 294 434 266 518 224 490 364 462 336 406 378 518 518 588 504 434 546 266 392 434 420 490 560 490 448 266 392 392 574 504 406 252 322 238 616 350 476 448 434 448 434 280 448 294 322 266 392 392 406 448 420 294 294 448 392 406 462 434 630 392 490 378 294 490 364 308 504 504 336 406 336 518 518 490 392 420 420 532 462 476 588 378 266 420 462 406 336 434 392 420 490 322 616 350 490 336 518 322 532 252 546 350 644 210 462 322 602 392 448 532 630 196 364 336 644 574 504 434 210 546 434 28 28 42 252 462 532 518 546 518 490 686 434 448 182 532 532 518 574 518 518 406 672 644 518 518 476 350 574 546 392 14 </values>
v </instantiation>

Wall time: 5.77 s
